334 5
10 10 10 10 10 

0 0 0 0 0 0 4 2 14 26 38 
0 0 0 0 0 0 7 3 4 6 7 10 11 12 
2 0 0 0 1 0 2 9 5 
7 0 0 0 2 0 2 9 8 
4 0 0 0 3 0 1 8 
10 0 0 0 1 0 1 8 
10 0 0 0 2 0 2 8 118 
7 0 0 0 1 0 1 13 
2 0 0 0 4 0 1 13 
3 0 0 0 2 0 1 13 
7 0 0 0 4 0 1 13 
8 0 0 0 5 0 1 13 
0 0 0 0 0 0 1 50 
0 0 0 0 0 0 4 15 16 18 19 
4 0 1 0 0 0 2 20 17 
8 0 3 0 0 0 3 24 23 21 
2 0 4 0 0 0 3 24 23 22 
5 0 1 0 0 0 2 24 20 
10 0 2 0 0 0 2 23 20 
6 0 4 0 0 0 2 22 72 
8 0 3 0 0 0 1 22 
10 0 1 0 0 0 1 25 
1 0 2 0 0 0 1 25 
9 0 4 0 0 0 1 25 
0 0 0 0 0 0 1 50 
0 0 0 0 0 0 5 27 28 30 35 36 
6 0 0 1 0 0 4 34 33 31 29 
6 0 0 2 0 0 2 32 31 
4 0 0 3 0 0 1 32 
3 0 0 4 0 0 1 31 
2 0 0 2 0 0 1 37 
1 0 0 1 0 0 1 37 
6 0 0 4 0 0 1 37 
3 0 0 4 0 0 2 37 291 
10 0 0 1 0 0 1 37 
8 0 0 3 0 0 1 37 
0 0 0 0 0 0 1 50 
0 0 0 0 0 0 6 39 40 42 46 47 48 
10 1 0 0 0 0 2 45 41 
8 3 0 0 0 0 2 44 43 
5 4 0 0 0 0 1 43 
2 2 0 0 0 0 1 43 
2 2 0 0 0 0 1 49 
3 5 0 0 0 0 1 49 
2 1 0 0 0 0 2 49 254 
10 1 0 0 0 0 1 49 
4 5 0 0 0 0 1 49 
4 1 0 0 0 0 1 49 
0 0 0 0 0 0 1 50 
0 0 0 0 0 0 4 51 63 75 87 
0 0 0 0 0 0 5 52 53 54 55 61 
10 1 0 0 0 0 3 60 59 56 
1 1 0 0 0 0 3 59 58 57 
6 2 0 0 0 0 2 58 57 
2 1 0 0 0 0 2 58 57 
1 7 0 0 0 0 1 57 
6 2 0 0 0 0 1 62 
9 2 0 0 0 0 1 62 
9 1 0 0 0 0 1 62 
6 3 0 0 0 0 2 62 317 
4 5 0 0 0 0 1 62 
0 0 0 0 0 0 1 99 
0 0 0 0 0 0 6 64 65 66 68 73 225 
6 0 0 1 0 0 2 72 67 
9 0 0 2 0 0 3 72 71 70 
4 0 0 3 0 0 2 71 69 
6 0 0 1 0 0 2 71 70 
2 0 0 3 0 0 1 69 
9 0 0 1 0 0 1 70 
4 0 0 2 0 0 1 74 
9 0 0 5 0 0 1 74 
7 0 0 3 0 0 1 74 
2 0 0 4 0 0 1 74 
0 0 0 0 0 0 1 99 
0 0 0 0 0 0 5 76 77 78 80 82 
8 0 0 1 0 0 2 81 79 
10 0 0 3 0 0 2 81 79 
6 0 0 2 0 0 3 85 83 81 
9 0 0 3 0 0 2 85 83 
3 0 0 2 0 0 2 84 83 
6 0 0 2 0 0 1 84 
5 0 0 3 0 0 1 83 
1 0 0 4 0 0 1 86 
1 0 0 2 0 0 2 86 162 
7 0 0 3 0 0 1 86 
0 0 0 0 0 0 1 99 
0 0 0 0 0 0 5 88 89 90 91 97 
2 0 0 0 0 1 4 96 95 94 93 
4 0 0 0 0 1 3 94 93 92 
9 0 0 0 0 2 3 95 94 93 
7 0 0 0 0 3 2 94 93 
9 0 0 0 0 4 1 95 
5 0 0 0 0 2 2 98 302 
8 0 0 0 0 1 1 98 
2 0 0 0 0 3 1 98 
3 0 0 0 0 4 1 98 
10 0 0 0 0 4 1 98 
0 0 0 0 0 0 1 99 
0 0 0 0 0 0 4 100 132 164 196 
0 0 0 0 0 0 6 101 102 103 104 105 116 
10 1 0 1 1 0 4 118 108 107 106 
6 1 0 2 3 0 5 118 114 112 107 106 
6 5 0 2 4 0 3 112 107 106 
1 3 0 2 5 0 3 117 108 106 
3 4 0 4 2 0 6 121 120 117 113 108 167 
7 3 0 5 3 0 3 113 110 109 
1 2 0 3 2 0 2 117 111 
3 2 0 3 3 0 2 114 112 
9 3 0 3 4 0 2 120 115 
3 2 0 1 3 0 2 120 115 
1 3 0 3 2 0 2 120 115 
1 1 0 3 3 0 1 115 
8 3 0 3 2 0 1 115 
7 1 0 2 3 0 1 115 
4 4 0 6 1 0 6 130 129 128 125 124 119 
9 2 0 3 1 0 4 130 125 124 122 
3 3 0 3 3 0 2 128 119 
1 2 0 1 3 0 4 130 128 127 124 
5 3 0 1 1 0 2 126 122 
2 5 0 1 3 0 3 129 128 126 
3 4 0 1 2 0 3 129 128 126 
5 3 0 2 2 0 1 123 
1 2 0 2 2 0 1 127 
4 2 0 3 2 0 1 126 
1 1 0 3 1 0 1 126 
5 1 0 3 2 0 1 131 
2 4 0 1 1 0 1 131 
6 1 0 1 5 0 1 131 
7 2 0 4 3 0 1 131 
4 2 0 3 3 0 1 131 
0 0 0 0 0 0 1 334 
0 0 0 0 0 0 6 133 134 135 136 137 162 
3 1 1 0 1 0 5 145 141 140 139 138 
10 3 4 0 3 0 4 161 141 140 138 
3 2 4 0 3 0 3 140 139 138 
1 3 2 0 2 0 3 145 141 138 
6 3 2 0 5 0 2 160 139 
3 1 2 0 3 0 3 153 148 142 
5 2 5 0 3 0 4 159 146 144 143 
8 1 4 0 1 0 2 153 143 
3 5 2 0 1 0 5 157 156 153 152 147 
10 1 2 0 2 0 1 143 
1 4 2 0 1 0 5 158 157 156 152 149 
2 4 5 0 4 0 4 157 156 152 149 
5 5 2 0 2 0 4 158 156 152 149 
10 4 4 0 2 0 4 157 156 155 149 
2 1 2 0 4 0 1 149 
6 2 2 0 4 0 3 159 158 155 
1 5 1 0 3 0 1 150 
9 3 2 0 2 0 1 151 
2 3 2 0 2 0 1 154 
10 1 3 0 4 0 1 155 
9 3 2 0 2 0 1 159 
10 2 1 0 3 0 1 163 
7 1 3 0 1 0 1 163 
10 2 4 0 1 0 1 163 
8 1 1 0 2 0 1 163 
9 3 2 0 3 0 1 163 
1 1 3 0 3 0 1 163 
8 3 1 0 3 0 1 163 
10 1 4 0 2 0 1 163 
10 4 1 0 3 0 1 163 
0 0 0 0 0 0 1 334 
0 0 0 0 0 0 6 165 166 167 168 169 194 
3 1 1 1 0 0 5 177 173 172 171 170 
1 5 2 3 0 0 5 177 174 173 171 170 
10 2 3 2 0 0 5 186 175 173 171 170 
8 3 2 2 0 0 4 180 173 172 170 
8 4 4 3 0 0 2 193 172 
7 2 4 3 0 0 2 178 176 
2 2 4 2 0 0 3 181 180 179 
6 2 2 3 0 0 2 175 174 
8 3 3 2 0 0 2 181 179 
4 1 5 1 0 0 2 189 179 
2 3 2 5 0 0 2 189 179 
7 1 2 1 0 0 2 189 179 
1 3 1 3 0 0 2 189 179 
9 1 3 4 0 0 4 191 185 182 181 
1 5 2 3 0 0 5 192 191 190 185 182 
5 1 2 3 0 0 3 189 188 182 
6 4 2 5 0 0 3 190 189 188 
9 3 4 1 0 0 1 183 
5 1 1 1 0 0 1 184 
3 2 2 4 0 0 1 187 
8 2 2 1 0 0 1 188 
8 3 3 5 0 0 1 189 
9 1 2 4 0 0 1 195 
3 2 3 3 0 0 1 195 
9 2 2 1 0 0 1 195 
3 4 2 3 0 0 1 195 
10 1 2 1 0 0 1 195 
5 4 2 2 0 0 1 195 
7 4 5 2 0 0 1 195 
8 3 1 1 0 0 1 195 
0 0 0 0 0 0 1 334 
0 0 0 0 0 0 7 197 198 199 202 204 205 206 
10 0 0 0 1 0 1 201 
3 0 0 0 2 0 1 200 
1 0 0 0 6 0 1 200 
4 0 0 0 5 0 1 203 
9 0 0 0 1 0 1 203 
1 0 0 0 2 0 1 203 
10 0 0 0 1 0 1 207 
1 0 0 0 3 0 1 207 
10 0 0 0 1 0 1 207 
4 0 0 0 3 0 1 207 
0 0 0 0 0 0 4 208 230 252 264 
0 0 0 0 0 0 9 209 210 211 212 213 214 215 218 220 
10 1 0 1 0 0 5 228 227 222 219 216 
9 2 0 2 0 0 4 228 227 226 217 
8 2 0 3 0 0 4 227 222 219 216 
4 2 0 5 0 0 4 228 227 222 219 
1 2 0 2 0 0 4 227 225 222 219 
8 4 0 2 0 0 3 222 219 216 
9 1 0 1 0 0 6 228 227 225 224 223 222 
8 2 0 2 0 0 3 226 225 221 
9 2 0 5 0 0 2 225 219 
4 2 0 1 0 0 2 225 221 
5 3 0 3 0 0 1 221 
1 4 0 4 0 0 1 221 
3 3 0 2 0 0 2 224 223 
9 3 0 2 0 0 1 226 
3 2 0 2 0 0 1 229 
4 3 0 2 0 0 1 229 
8 3 0 6 0 0 1 229 
3 3 0 3 0 0 1 229 
10 4 0 1 0 0 1 229 
6 2 0 1 0 0 1 229 
0 0 0 0 0 0 1 334 
0 0 0 0 0 0 6 231 232 233 234 236 238 
9 0 1 0 0 1 4 249 240 239 237 
4 0 3 0 0 2 3 249 243 235 
1 0 2 0 0 3 5 250 249 242 240 239 
3 0 2 0 0 2 3 243 241 239 
4 0 3 0 0 2 4 250 245 240 239 
5 0 3 0 0 2 4 250 245 243 239 
8 0 2 0 0 3 5 250 248 247 245 243 
1 0 2 0 0 2 3 249 243 239 
8 0 4 0 0 6 3 248 247 246 
10 0 1 0 0 1 2 248 244 
8 0 3 0 0 1 2 249 245 
4 0 2 0 0 1 2 247 245 
9 0 3 0 0 3 1 244 
9 0 3 0 0 3 1 246 
5 0 2 0 0 2 1 246 
9 0 3 0 0 6 1 251 
6 0 3 0 0 2 1 251 
2 0 3 0 0 3 1 251 
7 0 1 0 0 4 1 251 
8 0 4 0 0 1 1 251 
0 0 0 0 0 0 1 334 
0 0 0 0 0 0 3 253 254 255 
2 0 0 1 0 0 4 259 258 257 256 
2 0 0 3 0 0 4 262 260 259 256 
1 0 0 1 0 0 3 258 257 256 
7 0 0 1 0 0 1 261 
4 0 0 5 0 0 1 262 
7 0 0 4 0 0 1 261 
3 0 0 1 0 0 1 261 
1 0 0 2 0 0 1 261 
2 0 0 2 0 0 1 263 
7 0 0 5 0 0 1 263 
0 0 0 0 0 0 4 286 298 310 322 
0 0 0 0 0 0 4 265 266 268 271 
5 1 0 0 1 0 3 270 269 267 
6 2 0 0 2 0 2 277 269 
10 1 0 0 5 0 5 284 277 274 273 272 
1 2 0 0 2 0 2 272 270 
8 2 0 0 1 0 4 284 274 273 272 
3 3 0 0 1 0 3 284 274 273 
7 4 0 0 3 0 4 284 277 275 274 
4 3 0 0 1 0 4 279 278 276 275 
6 7 0 0 2 0 3 278 276 275 
8 4 0 0 4 0 3 282 279 278 
9 2 0 0 2 0 3 283 282 280 
7 5 0 0 3 0 2 281 280 
1 2 0 0 3 0 2 281 280 
6 2 0 0 4 0 1 281 
1 1 0 0 3 0 1 280 
5 1 0 0 3 0 1 285 
6 1 0 0 3 0 1 285 
8 3 0 0 1 0 1 285 
1 1 0 0 4 0 1 285 
5 3 0 0 2 0 1 285 
0 0 0 0 0 0 1 334 
0 0 0 0 0 0 3 287 288 289 
10 0 1 0 0 0 3 292 291 290 
1 0 3 0 0 0 3 292 291 290 
9 0 1 0 0 0 2 291 290 
6 0 3 0 0 0 4 296 295 294 293 
3 0 2 0 0 0 4 296 295 294 293 
2 0 1 0 0 0 4 296 295 294 293 
2 0 1 0 0 0 1 297 
10 0 6 0 0 0 1 297 
5 0 3 0 0 0 1 297 
9 0 4 0 0 0 1 297 
0 0 0 0 0 0 1 334 
0 0 0 0 0 0 3 299 302 303 
10 0 0 0 1 0 2 301 300 
8 0 0 0 3 0 5 308 307 306 305 304 
6 0 0 0 2 0 2 308 307 
10 0 0 0 3 0 2 306 304 
9 0 0 0 4 0 2 305 304 
6 0 0 0 3 0 1 309 
1 0 0 0 2 0 1 309 
4 0 0 0 1 0 1 309 
7 0 0 0 4 0 1 309 
1 0 0 0 2 0 1 309 
0 0 0 0 0 0 1 334 
0 0 0 0 0 0 7 311 312 316 317 318 319 320 
9 0 0 0 1 0 2 315 314 
3 0 0 0 4 0 1 313 
1 0 0 0 3 0 1 314 
9 0 0 0 2 0 1 321 
3 0 0 0 3 0 1 321 
3 0 0 0 5 0 1 321 
5 0 0 0 2 0 1 321 
4 0 0 0 2 0 1 321 
3 0 0 0 2 0 1 321 
10 0 0 0 1 0 1 321 
0 0 0 0 0 0 1 334 
0 0 0 0 0 0 5 323 324 327 328 332 
7 0 0 1 0 0 3 331 329 325 
7 0 0 5 0 0 2 330 326 
9 0 0 3 0 0 1 330 
10 0 0 4 0 0 1 329 
3 0 0 1 0 0 1 329 
1 0 0 2 0 0 1 329 
3 0 0 1 0 0 1 333 
5 0 0 3 0 0 1 333 
2 0 0 3 0 0 1 333 
8 0 0 2 0 0 1 333 
0 0 0 0 0 0 1 334 
0 0 0 0 0 0 0 
